5 5
1 6 2 91 4 88 3 79 0 55
1 48 0 58 4 97 2 42 3 74
1 21 0 6 3 30 4 23 2 36
0 3 4 90 2 34 3 30 1 82
3 81 4 42 2 21 0 88 1 4
-1
0 1 4 5
0 1 2 5
0 3 5
0 1 3 5
0 2 5
-2
9 352 331
51 145 339
87 159
3 182 294
179 358

436 5
15 11 6 23 4
0 10 5 19 24
1 17 22 8 14
20 18 3 12 9
16 21 2 7 13
